
Gurobi 10.0.0 (win64) logging started Fri Aug  9 18:27:17 2024

Set parameter LogFile to value "C:\Users\ealvarezq\Documents\GitHub\Comillas\Models\JointResearch\05. Models\06.Benchmarking\B.Operation_cost\IEEE118_ByStages_nc110/openStarNet_IEEE118_ByStages_nc110.log"
Set parameter Method to value 2
Set parameter MIPFocus to value 1
Set parameter Presolve to value 2
Set parameter RINS to value 100
Set parameter MIPGap to value 0.01
Set parameter Threads to value 9
Set parameter TimeLimit to value 259200
Set parameter IterationLimit to value 760000000
Gurobi Optimizer version 10.0.0 build v10.0.0rc2 (win64)

CPU model: Intel(R) Core(TM) i7-8700 CPU @ 3.20GHz, instruction set [SSE2|AVX|AVX2]
Thread count: 6 physical cores, 12 logical processors, using up to 9 threads

Optimize a model with 159613 rows, 112455 columns and 409885 nonzeros
Model fingerprint: 0xe5de7dde
Variable types: 112410 continuous, 45 integer (45 binary)
Coefficient statistics:
  Matrix range     [3e-04, 9e+03]
  Objective range  [1e+00, 1e+00]
  Bounds range     [1e-04, 6e+00]
  RHS range        [1e-04, 6e+00]
Presolve removed 105124 rows and 51839 columns
Presolve time: 0.83s
Presolved: 54489 rows, 60616 columns, 196759 nonzeros
Variable types: 60571 continuous, 45 integer (45 binary)
Root relaxation presolved: 54489 rows, 60616 columns, 196759 nonzeros

Root barrier log...

Ordering time: 0.03s

Barrier statistics:
 Dense cols : 45
 AA' NZ     : 2.764e+05
 Factor NZ  : 9.929e+05 (roughly 50 MB of memory)
 Factor Ops : 2.298e+07 (less than 1 second per iteration)
 Threads    : 8

                  Objective                Residual
Iter       Primal          Dual         Primal    Dual     Compl     Time
   0   7.18679693e+06 -7.37920709e+08  1.23e+01 1.24e+03  1.89e+04     2s
   1   2.32756041e+06 -2.57978414e+08  3.63e+00 7.61e-09  4.42e+03     2s
   2   4.59043908e+05 -1.26246651e+08  3.28e-01 5.24e-09  1.03e+03     2s
   3   2.70828635e+05 -1.57821491e+07  2.30e-02 1.55e-09  1.11e+02     2s
   4   1.58608309e+05 -2.01380713e+06  1.88e-03 1.47e-10  1.45e+01     2s
   5   7.81036510e+04 -5.43200358e+05  6.44e-04 3.70e-11  4.14e+00     2s
   6   3.89452130e+04 -1.36125992e+05  2.54e-04 8.39e-12  1.17e+00     2s
   7   1.77936796e+04 -4.96319468e+04  9.33e-05 1.44e-11  4.49e-01     2s
   8   6.86910891e+03 -1.41462474e+04  2.31e-05 2.00e-11  1.40e-01     2s
   9   5.17553170e+03 -7.14739491e+03  1.55e-05 2.27e-11  8.21e-02     2s
  10   3.29465912e+03 -3.01434521e+03  7.75e-06 3.31e-12  4.20e-02     2s
  11   2.31464594e+03 -3.12108138e+02  4.09e-06 6.42e-12  1.75e-02     2s
  12   1.91500546e+03  1.89955507e+02  2.67e-06 5.10e-11  1.15e-02     2s
  13   1.80425031e+03  4.41597956e+02  2.27e-06 1.92e-11  9.08e-03     2s
  14   1.55823386e+03  6.47745905e+02  1.40e-06 6.42e-12  6.07e-03     2s
  15   1.47282677e+03  8.08185732e+02  1.10e-06 5.17e-12  4.43e-03     2s
  16   1.35325684e+03  8.87779618e+02  7.34e-07 4.19e-12  3.10e-03     2s
  17   1.29732492e+03  9.78196575e+02  5.35e-07 4.32e-12  2.13e-03     2s
  18   1.25734292e+03  1.04491812e+03  3.91e-07 1.40e-11  1.42e-03     2s
  19   1.21227705e+03  1.07735482e+03  2.33e-07 5.11e-12  8.99e-04     2s
  20   1.20171484e+03  1.09931736e+03  1.94e-07 4.96e-12  6.82e-04     2s
  21   1.18941534e+03  1.11044697e+03  1.50e-07 3.57e-12  5.26e-04     2s
  22   1.17861548e+03  1.12396023e+03  1.11e-07 3.50e-12  3.64e-04     2s
  23   1.17026691e+03  1.13028938e+03  8.16e-08 4.45e-12  2.66e-04     2s
  24   1.15898172e+03  1.14033118e+03  4.16e-08 5.74e-12  1.24e-04     2s
  25   1.15374328e+03  1.14341479e+03  2.29e-08 6.06e-12  6.88e-05     2s
  26   1.15245813e+03  1.14437578e+03  1.83e-08 1.99e-11  5.39e-05     2s
  27   1.15159272e+03  1.14490893e+03  1.53e-08 3.58e-11  4.45e-05     2s
  28   1.15061004e+03  1.14560822e+03  1.19e-08 2.21e-11  3.33e-05     3s
  29   1.14890395e+03  1.14630821e+03  5.80e-09 1.11e-11  1.73e-05     3s
  30   1.14837916e+03  1.14682907e+03  4.09e-09 4.58e-12  1.03e-05     3s
  31   1.14777513e+03  1.14697876e+03  1.98e-09 4.50e-12  5.31e-06     3s
  32   1.14746294e+03  1.14709548e+03  4.02e-09 4.81e-12  2.45e-06     3s
  33   1.14733054e+03  1.14715883e+03  4.42e-09 4.66e-12  1.14e-06     3s
  34   1.14723799e+03  1.14719184e+03  2.14e-09 4.59e-12  3.08e-07     3s
  35   1.14720499e+03  1.14720193e+03  9.31e-09 9.25e-12  2.04e-08     3s
  36   1.14720452e+03  1.14720373e+03  4.39e-09 5.06e-12  5.24e-09     3s
  37   1.14720436e+03  1.14720408e+03  1.64e-09 2.95e-12  1.86e-09     3s
  38   1.14720430e+03  1.14720421e+03  5.12e-10 4.17e-12  6.17e-10     3s
  39   1.14720429e+03  1.14720427e+03  2.17e-10 5.70e-12  8.35e-11     3s

Barrier solved model in 39 iterations and 2.95 seconds (2.48 work units)
Optimal objective 1.14720429e+03


Root relaxation: objective 1.147204e+03, 5033 iterations, 2.99 seconds (2.98 work units)

    Nodes    |    Current Node    |     Objective Bounds      |     Work
 Expl Unexpl |  Obj  Depth IntInf | Incumbent    BestBd   Gap | It/Node Time

     0     0 1147.20428    0   40          - 1147.20428      -     -    4s
H    0     0                    20951.466292 1147.20428  94.5%     -   13s
H    0     0                    4315.2469923 1147.20428  73.4%     -   13s
H    0     0                    4279.0330650 1185.90833  72.3%     -   25s
     0     0 1185.90833    0   39 4279.03306 1185.90833  72.3%     -   25s
H    0     0                    4274.3137888 1185.90833  72.3%     -   31s
     0     0 1186.62707    0   40 4274.31379 1186.62707  72.2%     -   32s
     0     0 1186.62707    0   40 4274.31379 1186.62707  72.2%     -   32s
     0     0 1190.65607    0   40 4274.31379 1190.65607  72.1%     -   36s
     0     0 1192.59337    0   40 4274.31379 1192.59337  72.1%     -   37s
     0     0 1192.59371    0   40 4274.31379 1192.59371  72.1%     -   38s
     0     0 1192.59371    0   40 4274.31379 1192.59371  72.1%     -   38s
     0     0 1197.20961    0   41 4274.31379 1197.20961  72.0%     -   45s
H    0     0                    1933.3504455 1197.20961  38.1%     -   49s
     0     0 1197.27131    0   41 1933.35045 1197.27131  38.1%     -   49s
     0     0 1197.27522    0   41 1933.35045 1197.27522  38.1%     -   50s
     0     0 1199.30334    0   40 1933.35045 1199.30334  38.0%     -   55s
     0     0 1200.01961    0   41 1933.35045 1200.01961  37.9%     -   57s
     0     0 1200.03028    0   41 1933.35045 1200.03028  37.9%     -   57s
     0     0 1200.03289    0   41 1933.35045 1200.03289  37.9%     -   57s
     0     0 1200.42675    0   41 1933.35045 1200.42675  37.9%     -   60s

Gurobi 11.0.3 (win64) logging started Fri Sep 20 18:26:21 2024

Set parameter LogFile to value "C:\Users\ealvarezq\Desktop\B.Operation_cost\IEEE118_ByStages_nc110/openStarNet_IEEE118_ByStages_nc110.log"
Set parameter Method to value 2
Set parameter MIPFocus to value 1
Set parameter Presolve to value 2
Set parameter RINS to value 100
Set parameter MIPGap to value 0.01
Set parameter Threads to value 24
Set parameter TimeLimit to value 259200
Set parameter IterationLimit to value 760000000
Gurobi Optimizer version 11.0.3 build v11.0.3rc0 (win64 - Windows Server 2019.0 (17763.2))

CPU model: AMD Ryzen Threadripper PRO 3955WX 16-Cores, instruction set [SSE2|AVX|AVX2]
Thread count: 16 physical cores, 32 logical processors, using up to 24 threads

Optimize a model with 155543 rows, 111674 columns and 394914 nonzeros
Model fingerprint: 0x42f4ff3e
Variable types: 111640 continuous, 34 integer (34 binary)
Coefficient statistics:
  Matrix range     [3e-04, 9e+03]
  Objective range  [1e+00, 1e+00]
  Bounds range     [1e-04, 6e+00]
  RHS range        [1e-04, 6e+00]
Presolve removed 105344 rows and 51325 columns
Presolve time: 1.36s
Presolved: 50199 rows, 60349 columns, 182753 nonzeros
Variable types: 60315 continuous, 34 integer (34 binary)
Root relaxation presolved: 50199 rows, 60349 columns, 182753 nonzeros

Root barrier log...

Ordering time: 0.05s

Barrier statistics:
 Dense cols : 34
 AA' NZ     : 2.282e+05
 Factor NZ  : 8.888e+05 (roughly 50 MB of memory)
 Factor Ops : 1.860e+07 (less than 1 second per iteration)
 Threads    : 23

                  Objective                Residual
Iter       Primal          Dual         Primal    Dual     Compl     Time
   0   8.77556815e+06 -7.98844582e+08  1.52e+01 1.24e+03  2.48e+04     2s
   1   2.98259348e+06 -3.12962217e+08  4.81e+00 1.28e-08  6.50e+03     2s
   2   4.72490041e+05 -2.32336309e+08  3.73e-01 1.03e-08  1.90e+03     2s
   3   3.16310949e+05 -2.75723289e+07  9.74e-02 2.81e-09  2.17e+02     3s
   4   1.96260569e+05 -4.24760206e+06  5.82e-03 2.53e-10  3.09e+01     3s
   5   1.14843054e+05 -1.06738026e+06  1.79e-03 6.10e-11  8.16e+00     3s
   6   5.47412502e+04 -3.12015895e+05  6.61e-04 2.17e-11  2.53e+00     3s
   7   2.82061501e+04 -9.62054346e+04  2.86e-04 6.77e-12  8.56e-01     3s
   8   1.24132444e+04 -3.20774168e+04  9.19e-05 5.00e-12  3.06e-01     3s
   9   8.05868762e+03 -1.47631896e+04  5.19e-05 7.28e-12  1.57e-01     3s
  10   5.82448570e+03 -7.29887962e+03  3.31e-05 6.01e-12  9.03e-02     3s
  11   4.19797539e+03 -3.25641169e+03  2.00e-05 3.40e-12  5.13e-02     3s
  12   3.14467130e+03 -9.00751139e+02  1.20e-05 1.14e-11  2.78e-02     4s
  13   2.27643807e+03  2.28517908e+02  5.68e-06 2.70e-12  1.41e-02     4s
  14   1.97115856e+03  7.17613338e+02  3.61e-06 3.83e-12  8.62e-03     4s
  15   1.79008815e+03  9.25981513e+02  2.39e-06 4.97e-12  5.94e-03     4s
  16   1.67651215e+03  1.08588862e+03  1.65e-06 6.24e-12  4.06e-03     4s
  17   1.62789967e+03  1.17891358e+03  1.34e-06 3.65e-12  3.09e-03     4s
  18   1.54186167e+03  1.26382183e+03  7.99e-07 1.25e-11  1.91e-03     4s
  19   1.51018558e+03  1.32429149e+03  6.05e-07 4.31e-12  1.28e-03     4s
  20   1.48579304e+03  1.35040912e+03  4.58e-07 5.16e-12  9.31e-04     4s
  21   1.45482292e+03  1.37447983e+03  2.82e-07 1.83e-11  5.53e-04     5s
  22   1.43241241e+03  1.39062070e+03  1.45e-07 1.69e-11  2.87e-04     5s
  23   1.41688738e+03  1.39703340e+03  5.69e-08 5.22e-12  1.37e-04     5s
  24   1.41247084e+03  1.40141980e+03  3.08e-08 4.12e-12  7.60e-05     5s
  25   1.41001433e+03  1.40468031e+03  1.66e-08 5.64e-12  3.67e-05     5s
  26   1.40882802e+03  1.40585046e+03  9.86e-09 4.25e-12  2.05e-05     5s
  27   1.40789440e+03  1.40641597e+03  4.67e-09 4.01e-12  1.02e-05     5s
  28   1.40749993e+03  1.40684131e+03  2.43e-09 7.33e-12  4.53e-06     6s
  29   1.40722513e+03  1.40693401e+03  9.40e-10 4.09e-12  2.00e-06     6s
  30   1.40708701e+03  1.40702606e+03  2.03e-10 7.97e-12  4.19e-07     6s
  31   1.40705432e+03  1.40704023e+03  3.83e-09 3.30e-12  9.70e-08     7s
  32   1.40704591e+03  1.40704464e+03  5.69e-09 5.84e-12  8.73e-09     7s
  33   1.40704479e+03  1.40704477e+03  3.96e-09 5.95e-12  1.47e-10     7s

Barrier solved model in 33 iterations and 6.87 seconds (2.13 work units)
Optimal objective 1.40704479e+03


Root crossover log...

   10870 DPushes remaining with DInf 2.5084230e-06                 7s
       0 DPushes remaining with DInf 0.0000000e+00                 7s

     768 PPushes remaining with PInf 0.0000000e+00                 7s
       0 PPushes remaining with PInf 0.0000000e+00                 7s

  Push phase complete: Pinf 0.0000000e+00, Dinf 5.1618449e-11      7s


Root simplex log...

Iteration    Objective       Primal Inf.    Dual Inf.      Time
    4118    1.4070448e+03   0.000000e+00   0.000000e+00      7s
    4118    1.4070448e+03   0.000000e+00   0.000000e+00      7s

Root relaxation: objective 1.407045e+03, 4118 iterations, 5.83 seconds (1.60 work units)

    Nodes    |    Current Node    |     Objective Bounds      |     Work
 Expl Unexpl |  Obj  Depth IntInf | Incumbent    BestBd   Gap | It/Node Time

     0     0 1407.04477    0   23          - 1407.04477      -     -    8s
H    0     0                    6511.3930378 1407.04477  78.4%     -   13s
H    0     0                    1751.6238104 1407.04477  19.7%     -   17s
     0     0 1450.61741    0   24 1751.62381 1450.61741  17.2%     -   29s
     0     0 1451.01730    0   24 1751.62381 1451.01730  17.2%     -   31s
     0     0 1451.01743    0   24 1751.62381 1451.01743  17.2%     -   32s
     0     0 1455.65745    0   23 1751.62381 1455.65745  16.9%     -   35s
     0     0 1455.68064    0   23 1751.62381 1455.68064  16.9%     -   36s
     0     0 1457.86863    0   23 1751.62381 1457.86863  16.8%     -   38s
     0     0 1457.87942    0   23 1751.62381 1457.87942  16.8%     -   39s
     0     0 1457.88057    0   23 1751.62381 1457.88057  16.8%     -   39s
     0     0 1458.13361    0   22 1751.62381 1458.13361  16.8%     -   41s
     0     0 1458.13449    0   22 1751.62381 1458.13449  16.8%     -   42s
     0     0 1458.13587    0   22 1751.62381 1458.13587  16.8%     -   44s
H    0     0                    1617.2465559 1458.13587  9.84%     -  363s
     0     2 1458.13587    0   22 1617.24656 1458.13587  9.84%     -  365s
     1     4 1569.86817    1   21 1617.24656 1458.22860  9.83%  4729  374s
     3     6     cutoff    2      1617.24656 1490.94113  7.81%  3801  384s
     7    10 1503.96054    3   20 1617.24656 1496.54288  7.46%  2648  402s
    13    12 1519.85262    4   19 1617.24656 1504.65613  6.96%  2947  416s
    23    14 1565.58952    5   19 1617.24656 1519.86217  6.02%  2454  427s
    35    12     cutoff    6      1617.24656 1526.39624  5.62%  2097  480s
    49    16 1553.74580    7   16 1617.24656 1536.27530  5.01%  2515  489s
    61    20 1608.30902    8   15 1617.24656 1553.89739  3.92%  2244  497s
    77    30     cutoff    9      1617.24656 1556.53560  3.75%  2083  516s
    97    36 1572.25381   10   14 1617.24656 1569.39970  2.96%  1858  520s
   152    27     cutoff   12      1617.24656 1580.77018  2.26%  1303  529s
   184    22 1589.69650   13   11 1617.24656 1580.77018  2.26%  1157  530s

Cutting planes:
  Gomory: 2
  Implied bound: 188
  MIR: 711
  RLT: 8

Explored 255 nodes (241684 simplex iterations) in 534.72 seconds (389.30 work units)
Thread count was 24 (of 32 available processors)

Solution count 3: 1617.25 1751.62 6511.39 

Optimal solution found (tolerance 1.00e-02)
Best objective 1.617246555878e+03, best bound 1.604714200276e+03, gap 0.7749%

Gurobi 11.0.3 (win64) logging started Fri Sep 20 18:36:24 2024

Set parameter LogFile to value "C:\Users\ealvarezq\Desktop\B.Operation_cost\IEEE118_ByStages_nc110/openStarNet_IEEE118_ByStages_nc110.log"
Set parameter Method to value 2
Set parameter MIPFocus to value 1
Set parameter Presolve to value 2
Set parameter RINS to value 100
Set parameter MIPGap to value 0.01
Set parameter Threads to value 24
Set parameter TimeLimit to value 259200
Set parameter IterationLimit to value 760000000
Gurobi Optimizer version 11.0.3 build v11.0.3rc0 (win64 - Windows Server 2019.0 (17763.2))

CPU model: AMD Ryzen Threadripper PRO 3955WX 16-Cores, instruction set [SSE2|AVX|AVX2]
Thread count: 16 physical cores, 32 logical processors, using up to 24 threads

Optimize a model with 155543 rows, 111640 columns and 379920 nonzeros
Model fingerprint: 0x4e1a4a79
Coefficient statistics:
  Matrix range     [3e-04, 9e+03]
  Objective range  [1e+00, 1e+00]
  Bounds range     [1e-04, 6e+00]
  RHS range        [1e-04, 3e+02]
Presolve removed 115755 rows and 48275 columns
Presolve time: 0.38s
Presolved: 39788 rows, 63475 columns, 155149 nonzeros

Ordering time: 0.02s

Barrier statistics:
 AA' NZ     : 1.312e+05
 Factor NZ  : 5.222e+05 (roughly 50 MB of memory)
 Factor Ops : 7.544e+06 (less than 1 second per iteration)
 Threads    : 24

                  Objective                Residual
Iter       Primal          Dual         Primal    Dual     Compl     Time
   0   9.03220503e+06 -4.98400450e+08  4.95e+01 1.44e+02  1.00e+04     1s
   1   1.40185813e+06 -1.08852000e+08  6.36e+00 1.36e-12  1.36e+03     1s
   2   4.04085418e+05 -2.14874183e+07  1.04e+00 1.36e-12  2.17e+02     1s
   3   1.75964488e+05 -3.42826772e+06  4.47e-02 1.02e-12  2.71e+01     1s
   4   6.52692288e+04 -4.72318335e+05  3.95e-03 1.50e-11  3.89e+00     1s
   5   3.16941505e+04 -1.33081824e+05  1.34e-03 4.32e-12  1.19e+00     1s
   6   1.52498231e+04 -4.32734244e+04  5.05e-04 1.71e-12  4.22e-01     1s
   7   9.63585145e+03 -1.61443741e+04  2.78e-04 5.12e-13  1.86e-01     1s
   8   6.28554029e+03 -7.90032854e+03  1.53e-04 3.94e-13  1.02e-01     1s
   9   4.41158189e+03 -2.69069502e+03  8.71e-05 3.35e-13  5.12e-02     1s
  10   3.24078316e+03 -2.38649708e+02  4.83e-05 3.52e-13  2.51e-02     1s
  11   2.56324839e+03  8.95200823e+02  2.74e-05 3.80e-13  1.20e-02     2s
  12   2.19481124e+03  1.16874542e+03  1.64e-05 3.33e-13  7.39e-03     2s
  13   1.97112310e+03  1.30290694e+03  9.81e-06 2.71e-13  4.81e-03     2s
  14   1.83288755e+03  1.42746451e+03  5.80e-06 3.60e-13  2.92e-03     2s
  15   1.76464329e+03  1.50129299e+03  3.90e-06 2.69e-13  1.90e-03     2s
  16   1.67681855e+03  1.54388252e+03  1.53e-06 3.56e-13  9.58e-04     2s
  17   1.65438203e+03  1.57171545e+03  9.35e-07 2.57e-13  5.95e-04     2s
  18   1.63853392e+03  1.59687021e+03  5.52e-07 3.80e-13  3.00e-04     2s
  19   1.63255100e+03  1.60435701e+03  3.95e-07 3.61e-13  2.03e-04     2s
  20   1.62442141e+03  1.61191840e+03  1.83e-07 3.35e-13  9.01e-05     2s
  21   1.62120518e+03  1.61428167e+03  9.88e-08 3.42e-13  4.99e-05     2s
  22   1.62040730e+03  1.61578094e+03  7.93e-08 3.22e-13  3.33e-05     2s
  23   1.61926888e+03  1.61625578e+03  5.07e-08 2.69e-13  2.17e-05     2s
  24   1.61841747e+03  1.61696151e+03  2.93e-08 3.50e-13  1.05e-05     2s
  25   1.61811977e+03  1.61704653e+03  2.17e-08 3.63e-13  7.73e-06     3s
  26   1.61766504e+03  1.61714603e+03  1.02e-08 3.99e-13  3.74e-06     3s
  27   1.61742418e+03  1.61721114e+03  4.26e-09 4.49e-13  1.53e-06     3s
  28   1.61737748e+03  1.61723727e+03  3.11e-09 3.25e-13  1.01e-06     3s
  29   1.61732759e+03  1.61724345e+03  1.91e-09 2.71e-13  6.06e-07     3s
  30   1.61724899e+03  1.61724383e+03  1.37e-09 4.11e-13  3.71e-08     3s
  31   1.61724724e+03  1.61724650e+03  7.12e-10 4.16e-13  5.36e-09     3s
  32   1.61724657e+03  1.61724654e+03  6.88e-09 2.76e-13  2.79e-10     3s
  33   1.61724656e+03  1.61724656e+03  4.16e-09 2.86e-13  1.70e-11     3s

Barrier solved model in 33 iterations and 3.43 seconds (0.86 work units)
Optimal objective 1.61724656e+03

Crossover log...

   11350 DPushes remaining with DInf 0.0000000e+00                 3s
       0 DPushes remaining with DInf 0.0000000e+00                 4s

     246 PPushes remaining with PInf 0.0000000e+00                 4s
       0 PPushes remaining with PInf 0.0000000e+00                 4s

  Push phase complete: Pinf 0.0000000e+00, Dinf 4.0806817e-12      4s

Iteration    Objective       Primal Inf.    Dual Inf.      Time
    3564    1.6172466e+03   0.000000e+00   0.000000e+00      4s

Solved in 3564 iterations and 3.83 seconds (1.02 work units)
Optimal objective  1.617246556e+03
